; Copyright (c) 2026 The RIINA Authors. All rights reserved.
; Auto-generated from 02_FORMAL/coq/Industries/IndustryTelecom.v (24 validations)
; Generated by scripts/generate-full-stack.py
;
; Translation Validation for IndustryTelecom
; Layer 9: Verifies compiler backend preserves formal semantics.
; Each assertion checks source IR ≡ target code for a proven property.

(set-logic QF_LIA)
(set-option :produce-models true)

; IR node representation
(declare-sort IRNode 0)
(declare-sort TargetNode 0)

; domain_to_nat: source semantics (matches Coq)
(declare-fun source_domain_to_nat () Bool)
(declare-fun target_domain_to_nat () Bool)
(assert (= source_domain_to_nat target_domain_to_nat))

; domain_criticality: source semantics (matches Coq)
(declare-fun source_domain_criticality () Bool)
(declare-fun target_domain_criticality () Bool)
(assert (= source_domain_criticality target_domain_criticality))

; is_auth_function: source semantics (matches Coq)
(declare-fun source_is_auth_function () Bool)
(declare-fun target_is_auth_function () Bool)
(assert (= source_is_auth_function target_is_auth_function))

; security_5g_all: source semantics (matches Coq)
(declare-fun source_security_5g_all () Bool)
(declare-fun target_security_5g_all () Bool)
(assert (= source_security_5g_all target_security_5g_all))

; slices_isolated: source semantics (matches Coq)
(declare-fun source_slices_isolated () Bool)
(declare-fun target_slices_isolated () Bool)
(assert (= source_slices_isolated target_slices_isolated))

; latency_acceptable: source semantics (matches Coq)
(declare-fun source_latency_acceptable () Bool)
(declare-fun target_latency_acceptable () Bool)
(assert (= source_latency_acceptable target_latency_acceptable))

; supi_concealed: source semantics (matches Coq)
(declare-fun source_supi_concealed () Bool)
(declare-fun target_supi_concealed () Bool)
(assert (= source_supi_concealed target_supi_concealed))

; key_derivation_depth: source semantics (matches Coq)
(declare-fun source_key_derivation_depth () Bool)
(declare-fun target_key_derivation_depth () Bool)
(assert (= source_key_derivation_depth target_key_derivation_depth))

; roaming_security_level: source semantics (matches Coq)
(declare-fun source_roaming_security_level () Bool)
(declare-fun target_roaming_security_level () Bool)
(assert (= source_roaming_security_level target_roaming_security_level))

; li_valid: source semantics (matches Coq)
(declare-fun source_li_valid () Bool)
(declare-fun target_li_valid () Bool)
(assert (= source_li_valid target_li_valid))

; security_5g_compliance: translation preserves property (matches Coq: Theorem)
(declare-fun source_security_5g_compliance () Bool)
(declare-fun target_security_5g_compliance () Bool)
(assert (= source_security_5g_compliance target_security_5g_compliance))

; gsma_security: translation preserves property (matches Coq: Theorem)
(declare-fun source_gsma_security () Bool)
(declare-fun target_gsma_security () Bool)
(assert (= source_gsma_security target_gsma_security))

; slice_isolation: translation preserves property (matches Coq: Theorem)
(declare-fun source_slice_isolation () Bool)
(declare-fun target_slice_isolation () Bool)
(assert (= source_slice_isolation target_slice_isolation))

; signaling_security: translation preserves property (matches Coq: Theorem)
(declare-fun source_signaling_security () Bool)
(declare-fun target_signaling_security () Bool)
(assert (= source_signaling_security target_signaling_security))

; nfv_security: translation preserves property (matches Coq: Theorem)
(declare-fun source_nfv_security () Bool)
(declare-fun target_nfv_security () Bool)
(assert (= source_nfv_security target_nfv_security))

; integrity_mandatory_5g: translation preserves property (matches Coq: Theorem)
(declare-fun source_integrity_mandatory_5g () Bool)
(declare-fun target_integrity_mandatory_5g () Bool)
(assert (= source_integrity_mandatory_5g target_integrity_mandatory_5g))

; up_integrity_available: translation preserves property (matches Coq: Theorem)
(declare-fun source_up_integrity_available () Bool)
(declare-fun target_up_integrity_available () Bool)
(assert (= source_up_integrity_available target_up_integrity_available))

; core_most_critical: translation preserves property (matches Coq: Theorem)
(declare-fun source_core_most_critical () Bool)
(declare-fun target_core_most_critical () Bool)
(assert (= source_core_most_critical target_core_most_critical))

; domain_criticality_positive: translation preserves property (matches Coq: Theorem)
(declare-fun source_domain_criticality_positive () Bool)
(declare-fun target_domain_criticality_positive () Bool)
(assert (= source_domain_criticality_positive target_domain_criticality_positive))

; ausf_is_auth: translation preserves property (matches Coq: Theorem)
(declare-fun source_ausf_is_auth () Bool)
(declare-fun target_ausf_is_auth () Bool)
(assert (= source_ausf_is_auth target_ausf_is_auth))

; amf_not_auth: translation preserves property (matches Coq: Theorem)
(declare-fun source_amf_not_auth () Bool)
(declare-fun target_amf_not_auth () Bool)
(assert (= source_amf_not_auth target_amf_not_auth))

; all_sec_requires_auth: translation preserves property (matches Coq: Theorem)
(declare-fun source_all_sec_requires_auth () Bool)
(declare-fun target_all_sec_requires_auth () Bool)
(assert (= source_all_sec_requires_auth target_all_sec_requires_auth))

; all_sec_requires_nas: translation preserves property (matches Coq: Theorem)
(declare-fun source_all_sec_requires_nas () Bool)
(declare-fun target_all_sec_requires_nas () Bool)
(assert (= source_all_sec_requires_nas target_all_sec_requires_nas))

; all_sec_requires_slicing: translation preserves property (matches Coq: Theorem)
(declare-fun source_all_sec_requires_slicing () Bool)
(declare-fun target_all_sec_requires_slicing () Bool)
(assert (= source_all_sec_requires_slicing target_all_sec_requires_slicing))

; same_slice_not_isolated: translation preserves property (matches Coq: Theorem)
(declare-fun source_same_slice_not_isolated () Bool)
(declare-fun target_same_slice_not_isolated () Bool)
(assert (= source_same_slice_not_isolated target_same_slice_not_isolated))

; latency_bounded: translation preserves property (matches Coq: Theorem)
(declare-fun source_latency_bounded () Bool)
(declare-fun target_latency_bounded () Bool)
(assert (= source_latency_bounded target_latency_bounded))

; supi_always_concealed_in_core: translation preserves property (matches Coq: Theorem)
(declare-fun source_supi_always_concealed_in_core () Bool)
(declare-fun target_supi_always_concealed_in_core () Bool)
(assert (= source_supi_always_concealed_in_core target_supi_always_concealed_in_core))

; supi_concealed_ran_requires_encryption: translation preserves property (matches Coq: Theorem)
(declare-fun source_supi_concealed_ran_requires_encryption () Bool)
(declare-fun target_supi_concealed_ran_requires_encryption () Bool)
(assert (= source_supi_concealed_ran_requires_encryption target_supi_concealed_ran_requires_encryption))

; supi_concealed_ran_with_encryption: translation preserves property (matches Coq: Theorem)
(declare-fun source_supi_concealed_ran_with_encryption () Bool)
(declare-fun target_supi_concealed_ran_with_encryption () Bool)
(assert (= source_supi_concealed_ran_with_encryption target_supi_concealed_ran_with_encryption))

; ran_deepest_key_hierarchy: translation preserves property (matches Coq: Theorem)
(declare-fun source_ran_deepest_key_hierarchy () Bool)
(declare-fun target_ran_deepest_key_hierarchy () Bool)
(assert (= source_ran_deepest_key_hierarchy target_ran_deepest_key_hierarchy))

; roaming_no_upgrade: translation preserves property (matches Coq: Theorem)
(declare-fun source_roaming_no_upgrade () Bool)
(declare-fun target_roaming_no_upgrade () Bool)
(assert (= source_roaming_no_upgrade target_roaming_no_upgrade))

; roaming_bounded_by_visited: translation preserves property (matches Coq: Theorem)
(declare-fun source_roaming_bounded_by_visited () Bool)
(declare-fun target_roaming_bounded_by_visited () Bool)
(assert (= source_roaming_bounded_by_visited target_roaming_bounded_by_visited))

; li_requires_authorization: translation preserves property (matches Coq: Theorem)
(declare-fun source_li_requires_authorization () Bool)
(declare-fun target_li_requires_authorization () Bool)
(assert (= source_li_requires_authorization target_li_requires_authorization))

; li_requires_logging: translation preserves property (matches Coq: Theorem)
(declare-fun source_li_requires_logging () Bool)
(declare-fun target_li_requires_logging () Bool)
(assert (= source_li_requires_logging target_li_requires_logging))

; Verify all translation validations are satisfiable
(check-sat)
(exit)
